30
2 1 9
3 0 7
3 1 2
3 2 6
4 2 6
4 3 1
5 2 10
5 3 5
5 4 9
6 0 3
6 1 10
6 2 6
6 5 1
7 1 1
7 2 9
7 4 6
7 6 10
8 3 4
8 5 8
8 6 10
9 0 9
9 1 7
9 2 9
9 5 10
10 2 2
10 3 6
10 4 5
10 6 3
10 9 6
11 0 3
11 1 5
11 3 10
11 5 6
11 8 1
11 9 2
11 10 2
12 3 1
12 4 5
12 6 4
12 9 7
13 1 1
13 3 7
13 6 2
13 7 5
13 8 7
13 12 1
14 3 7
14 4 8
14 5 4
14 7 7
14 9 10
14 10 4
14 13 1
15 1 5
15 2 2
15 3 8
15 5 7
15 6 5
15 7 1
15 8 1
15 12 2
16 0 5
16 1 1
16 2 8
16 3 10
16 4 1
16 5 6
16 9 3
16 11 2
16 12 6
16 15 1
17 4 8
17 6 6
17 7 10
17 8 3
17 10 9
17 13 1
18 9 1
18 12 5
18 13 10
18 14 4
19 0 3
19 5 6
19 7 7
19 10 9
19 11 2
19 12 4
19 13 1
19 15 3
19 16 1
19 17 10
19 18 1
20 2 7
20 3 6
20 4 1
20 5 1
20 12 5
20 15 5
20 18 7
20 19 10
21 0 5
21 1 2
21 4 8
21 6 7
21 7 6
21 8 5
21 9 6
21 11 4
21 14 7
21 15 8
21 16 8
21 17 6
21 18 8
21 19 5
21 20 3
22 2 5
22 3 2
22 5 9
22 8 4
22 9 9
22 11 2
22 13 2
22 16 6
22 20 7
23 0 8
23 1 7
23 2 9
23 3 5
23 4 7
23 5 7
23 11 6
23 12 4
23 15 6
23 16 3
23 17 1
23 18 5
23 19 4
23 20 7
23 21 6
23 22 2
24 1 7
24 5 2
24 6 1
24 7 4
24 12 9
24 13 9
24 14 2
24 15 9
25 1 8
25 4 7
25 5 8
25 6 3
25 10 6
25 11 3
25 13 9
25 15 9
25 16 6
25 17 1
25 18 10
25 19 10
25 21 1
25 23 4
26 2 8
26 3 8
26 5 9
26 7 1
26 9 3
26 12 10
26 13 3
26 14 9
26 16 9
26 19 7
26 20 3
26 21 1
26 22 6
26 23 5
26 25 9
27 1 1
27 3 10
27 4 2
27 5 9
27 6 9
27 13 3
27 14 3
27 16 2
27 18 1
27 19 10
27 20 7
27 24 1
27 25 4
28 0 5
28 3 2
28 4 8
28 5 9
28 6 9
28 7 2
28 8 9
28 15 8
28 16 1
28 17 8
28 19 6
28 20 4
28 22 3
28 23 7
29 0 7
29 4 8
29 6 8
29 7 10
29 9 1
29 10 3
29 11 9
29 15 6
29 18 5
29 19 5
29 21 7
29 23 8
29 24 2
29 27 4
